p cnf 1477
-9 -129
-10 -47
-11 -50
-12 -53
-13 -56
-14 -151
-15 -157
-16 -163
-17 -169
-18 -192
-19 -211
-20 -229
-21 -239
-22 -258
-23 -277
-24 -295
-25 -305
-26 -324
-27 -343
-28 -361
-29 -371
-30 -390
-31 -409
-32 -427
-33 -437
-34 -470
-35 -476
-36 1
-36 -14
-1 14 36
-37 2
-37 -15
-2 15 37
-38 3
-38 -16
-3 16 38
-39 4
-39 -17
-4 17 39
-40 -36
-40 37
36 -37 40
-41 -36
-41 -40
36 40 41
-42 38
-42 41
-38 -41 42
-43 41
-43 -42
-41 42 43
-44 39
-44 43
-39 -43 44
-45 -9
-45 36
9 -36 45
-46 9
-46 10
-9 -10 46
-47 -45
-47 -46
45 46 47
-48 -9
-48 40
9 -40 48
-49 9
-49 11
-9 -11 49
-50 -48
-50 -49
48 49 50
-51 -9
-51 42
9 -42 51
-52 9
-52 12
-9 -12 52
-53 -51
-53 -52
51 52 53
-54 -9
-54 44
9 -44 54
-55 9
-55 13
-9 -13 55
-56 -54
-56 -55
54 55 56
-57 1
-57 -47
-1 47 57
-58 2
-58 -50
-2 50 58
-59 3
-59 -53
-3 53 59
-60 4
-60 -56
-4 56 60
-61 18
-61 -19
-18 19 61
-62 -20
-62 -21
20 21 62
-63 61
-63 62
-61 -62 63
-64 -18
-64 -19
18 19 64
-65 -20
-65 21
20 -21 65
-66 64
-66 65
-64 -65 66
-67 -63
-67 -66
63 66 67
-68 57
-68 -67
-57 67 68
-69 22
-69 -23
-22 23 69
-70 -24
-70 -25
24 25 70
-71 69
-71 70
-69 -70 71
-72 -22
-72 -23
22 23 72
-73 -24
-73 25
24 -25 73
-74 72
-74 73
-72 -73 74
-75 -71
-75 -74
71 74 75
-76 58
-76 -75
-58 75 76
-77 26
-77 -27
-26 27 77
-78 -28
-78 -29
28 29 78
-79 77
-79 78
-77 -78 79
-80 -26
-80 -27
26 27 80
-81 -28
-81 29
28 -29 81
-82 80
-82 81
-80 -81 82
-83 -79
-83 -82
79 82 83
-84 59
-84 -83
-59 83 84
-85 30
-85 -31
-30 31 85
-86 -32
-86 -33
32 33 86
-87 85
-87 86
-85 -86 87
-88 -30
-88 -31
30 31 88
-89 -32
-89 33
32 -33 89
-90 88
-90 89
-88 -89 90
-91 -87
-91 -90
87 90 91
-92 60
-92 -91
-60 91 92
-93 -68
-93 -76
68 76 93
-94 -84
-94 -92
84 92 94
-95 93
-95 94
-93 -94 95
-96 -18
-96 19
18 -19 96
-97 20
-97 -21
-20 21 97
-98 96
-98 97
-96 -97 98
-99 20
-99 21
-20 -21 99
-100 61
-100 99
-61 -99 100
-101 -98
-101 -100
98 100 101
-102 57
-102 -101
-57 101 102
-103 -22
-103 23
22 -23 103
-104 24
-104 -25
-24 25 104
-105 103
-105 104
-103 -104 105
-106 24
-106 25
-24 -25 106
-107 69
-107 106
-69 -106 107
-108 -105
-108 -107
105 107 108
-109 58
-109 -108
-58 108 109
-110 -26
-110 27
26 -27 110
-111 28
-111 -29
-28 29 111
-112 110
-112 111
-110 -111 112
-113 28
-113 29
-28 -29 113
-114 77
-114 113
-77 -113 114
-115 -112
-115 -114
112 114 115
-116 59
-116 -115
-59 115 116
-117 -30
-117 31
30 -31 117
-118 32
-118 -33
-32 33 118
-119 117
-119 118
-117 -118 119
-120 32
-120 33
-32 -33 120
-121 85
-121 120
-85 -120 121
-122 -119
-122 -121
119 121 122
-123 60
-123 -122
-60 122 123
-124 -102
-124 -109
102 109 124
-125 -116
-125 -123
116 123 125
-126 124
-126 125
-124 -125 126
-127 9
-127 126
-9 -126 127
-128 95
-128 127
-95 -127 128
-129 95
-129 -128
-95 128 129
-130 -14
-130 15
14 -15 130
-131 -14
-131 -130
14 130 131
-132 16
-132 131
-16 -131 132
-133 131
-133 -132
-131 132 133
-134 17
-134 133
-17 -133 134
-135 64
-135 99
-64 -99 135
-136 57
-136 135
-57 -135 136
-137 72
-137 106
-72 -106 137
-138 58
-138 137
-58 -137 138
-139 80
-139 113
-80 -113 139
-140 59
-140 139
-59 -139 140
-141 88
-141 120
-88 -120 141
-142 60
-142 141
-60 -141 142
-143 -136
-143 -138
136 138 143
-144 -140
-144 -142
140 142 144
-145 143
-145 144
-143 -144 145
-146 61
-146 97
-61 -97 146
-147 57
-147 146
-57 -146 147
-148 14
-148 -145
-14 145 148
-149 14
-149 -148
-14 148 149
-150 -147
-150 149
147 -149 150
-151 -147
-151 -150
147 150 151
-152 69
-152 104
-69 -104 152
-153 58
-153 152
-58 -152 153
-154 130
-154 -145
-130 145 154
-155 15
-155 -154
-15 154 155
-156 -153
-156 155
153 -155 156
-157 -153
-157 -156
153 156 157
-158 77
-158 111
-77 -111 158
-159 59
-159 158
-59 -158 159
-160 132
-160 -145
-132 145 160
-161 16
-161 -160
-16 160 161
-162 -159
-162 161
159 -161 162
-163 -159
-163 -162
159 162 163
-164 85
-164 118
-85 -118 164
-165 60
-165 164
-60 -164 165
-166 134
-166 -145
-134 145 166
-167 17
-167 -166
-17 166 167
-168 -165
-168 167
165 -167 168
-169 -165
-169 -168
165 168 169
-170 -14
-170 -15
14 15 170
-171 -16
-171 -17
16 17 171
-172 170
-172 171
-170 -171 172
-173 -34
-173 35
34 -35 173
-174 -19
-174 -64
19 64 174
-175 20
-175 64
-20 -64 175
-176 -20
-176 -174
20 174 176
-177 -175
-177 -176
175 176 177
-178 -5
-178 18
5 -18 178
-179 18
-179 -178
-18 178 179
-180 19
-180 -179
-19 179 180
-181 5
-181 -18
-5 18 181
-182 -19
-182 181
19 -181 182
-183 -96
-183 -182
96 182 183
-184 20
-184 180
-20 -180 184
-185 -20
-185 -183
20 183 185
-186 -184
-186 -185
184 185 186
-187 21
-187 -177
-21 177 187
-188 -21
-188 -186
21 186 188
-189 -187
-189 -188
187 188 189
-190 57
-190 -189
-57 189 190
-191 18
-191 -57
-18 57 191
-192 -190
-192 -191
190 191 192
-193 18
-193 172
-18 -172 193
-194 -19
-194 193
19 -193 194
-195 -96
-195 -194
96 194 195
-196 20
-196 61
-20 -61 196
-197 -20
-197 -195
20 195 197
-198 -196
-198 -197
196 197 198
-199 19
-199 -180
-19 180 199
-200 -18
-200 -173
18 173 200
-201 19
-201 200
-19 -200 201
-202 -61
-202 -201
61 201 202
-203 20
-203 -199
-20 199 203
-204 -20
-204 -202
20 202 204
-205 -203
-205 -204
203 204 205
-206 21
-206 -198
-21 198 206
-207 -21
-207 -205
21 205 207
-208 -206
-208 -207
206 207 208
-209 57
-209 -208
-57 208 209
-210 19
-210 -57
-19 57 210
-211 -209
-211 -210
209 210 211
-212 18
-212 -172
-18 172 212
-213 18
-213 19
-18 -19 213
-214 -19
-214 212
19 -212 214
-215 -213
-215 -214
213 214 215
-216 -19
-216 20
19 -20 216
-217 -20
-217 -215
20 215 217
-218 -216
-218 -217
216 217 218
-219 -18
-219 173
18 -173 219
-220 -18
-220 -219
18 219 220
-221 19
-221 -220
-19 220 221
-222 -20
-222 221
20 -221 222
-223 -203
-223 -222
203 222 223
-224 21
-224 -218
-21 218 224
-225 -21
-225 -223
21 223 225
-226 -224
-226 -225
224 225 226
-227 57
-227 -226
-57 226 227
-228 20
-228 -57
-20 57 228
-229 -227
-229 -228
227 228 229
-230 20
-230 -216
-20 216 230
-231 5
-231 18
-5 -18 231
-232 19
-232 231
-19 -231 232
-233 20
-233 232
-20 -232 233
-234 21
-234 -230
-21 230 234
-235 -21
-235 233
21 -233 235
-236 -234
-236 -235
234 235 236
-237 57
-237 -236
-57 236 237
-238 21
-238 -57
-21 57 238
-239 -237
-239 -238
237 238 239
-240 -23
-240 -72
23 72 240
-241 24
-241 72
-24 -72 241
-242 -24
-242 -240
24 240 242
-243 -241
-243 -242
241 242 243
-244 -6
-244 22
6 -22 244
-245 22
-245 -244
-22 244 245
-246 23
-246 -245
-23 245 246
-247 6
-247 -22
-6 22 247
-248 -23
-248 247
23 -247 248
-249 -103
-249 -248
103 248 249
-250 24
-250 246
-24 -246 250
-251 -24
-251 -249
24 249 251
-252 -250
-252 -251
250 251 252
-253 25
-253 -243
-25 243 253
-254 -25
-254 -252
25 252 254
-255 -253
-255 -254
253 254 255
-256 58
-256 -255
-58 255 256
-257 22
-257 -58
-22 58 257
-258 -256
-258 -257
256 257 258
-259 22
-259 172
-22 -172 259
-260 -23
-260 259
23 -259 260
-261 -103
-261 -260
103 260 261
-262 24
-262 69
-24 -69 262
-263 -24
-263 -261
24 261 263
-264 -262
-264 -263
262 263 264
-265 23
-265 -246
-23 246 265
-266 -22
-266 -173
22 173 266
-267 23
-267 266
-23 -266 267
-268 -69
-268 -267
69 267 268
-269 24
-269 -265
-24 265 269
-270 -24
-270 -268
24 268 270
-271 -269
-271 -270
269 270 271
-272 25
-272 -264
-25 264 272
-273 -25
-273 -271
25 271 273
-274 -272
-274 -273
272 273 274
-275 58
-275 -274
-58 274 275
-276 23
-276 -58
-23 58 276
-277 -275
-277 -276
275 276 277
-278 22
-278 -172
-22 172 278
-279 22
-279 23
-22 -23 279
-280 -23
-280 278
23 -278 280
-281 -279
-281 -280
279 280 281
-282 -23
-282 24
23 -24 282
-283 -24
-283 -281
24 281 283
-284 -282
-284 -283
282 283 284
-285 -22
-285 173
22 -173 285
-286 -22
-286 -285
22 285 286
-287 23
-287 -286
-23 286 287
-288 -24
-288 287
24 -287 288
-289 -269
-289 -288
269 288 289
-290 25
-290 -284
-25 284 290
-291 -25
-291 -289
25 289 291
-292 -290
-292 -291
290 291 292
-293 58
-293 -292
-58 292 293
-294 24
-294 -58
-24 58 294
-295 -293
-295 -294
293 294 295
-296 24
-296 -282
-24 282 296
-297 6
-297 22
-6 -22 297
-298 23
-298 297
-23 -297 298
-299 24
-299 298
-24 -298 299
-300 25
-300 -296
-25 296 300
-301 -25
-301 299
25 -299 301
-302 -300
-302 -301
300 301 302
-303 58
-303 -302
-58 302 303
-304 25
-304 -58
-25 58 304
-305 -303
-305 -304
303 304 305
-306 -27
-306 -80
27 80 306
-307 28
-307 80
-28 -80 307
-308 -28
-308 -306
28 306 308
-309 -307
-309 -308
307 308 309
-310 -7
-310 26
7 -26 310
-311 26
-311 -310
-26 310 311
-312 27
-312 -311
-27 311 312
-313 7
-313 -26
-7 26 313
-314 -27
-314 313
27 -313 314
-315 -110
-315 -314
110 314 315
-316 28
-316 312
-28 -312 316
-317 -28
-317 -315
28 315 317
-318 -316
-318 -317
316 317 318
-319 29
-319 -309
-29 309 319
-320 -29
-320 -318
29 318 320
-321 -319
-321 -320
319 320 321
-322 59
-322 -321
-59 321 322
-323 26
-323 -59
-26 59 323
-324 -322
-324 -323
322 323 324
-325 26
-325 172
-26 -172 325
-326 -27
-326 325
27 -325 326
-327 -110
-327 -326
110 326 327
-328 28
-328 77
-28 -77 328
-329 -28
-329 -327
28 327 329
-330 -328
-330 -329
328 329 330
-331 27
-331 -312
-27 312 331
-332 -26
-332 -173
26 173 332
-333 27
-333 332
-27 -332 333
-334 -77
-334 -333
77 333 334
-335 28
-335 -331
-28 331 335
-336 -28
-336 -334
28 334 336
-337 -335
-337 -336
335 336 337
-338 29
-338 -330
-29 330 338
-339 -29
-339 -337
29 337 339
-340 -338
-340 -339
338 339 340
-341 59
-341 -340
-59 340 341
-342 27
-342 -59
-27 59 342
-343 -341
-343 -342
341 342 343
-344 26
-344 -172
-26 172 344
-345 26
-345 27
-26 -27 345
-346 -27
-346 344
27 -344 346
-347 -345
-347 -346
345 346 347
-348 -27
-348 28
27 -28 348
-349 -28
-349 -347
28 347 349
-350 -348
-350 -349
348 349 350
-351 -26
-351 173
26 -173 351
-352 -26
-352 -351
26 351 352
-353 27
-353 -352
-27 352 353
-354 -28
-354 353
28 -353 354
-355 -335
-355 -354
335 354 355
-356 29
-356 -350
-29 350 356
-357 -29
-357 -355
29 355 357
-358 -356
-358 -357
356 357 358
-359 59
-359 -358
-59 358 359
-360 28
-360 -59
-28 59 360
-361 -359
-361 -360
359 360 361
-362 28
-362 -348
-28 348 362
-363 7
-363 26
-7 -26 363
-364 27
-364 363
-27 -363 364
-365 28
-365 364
-28 -364 365
-366 29
-366 -362
-29 362 366
-367 -29
-367 365
29 -365 367
-368 -366
-368 -367
366 367 368
-369 59
-369 -368
-59 368 369
-370 29
-370 -59
-29 59 370
-371 -369
-371 -370
369 370 371
-372 -31
-372 -88
31 88 372
-373 32
-373 88
-32 -88 373
-374 -32
-374 -372
32 372 374
-375 -373
-375 -374
373 374 375
-376 -8
-376 30
8 -30 376
-377 30
-377 -376
-30 376 377
-378 31
-378 -377
-31 377 378
-379 8
-379 -30
-8 30 379
-380 -31
-380 379
31 -379 380
-381 -117
-381 -380
117 380 381
-382 32
-382 378
-32 -378 382
-383 -32
-383 -381
32 381 383
-384 -382
-384 -383
382 383 384
-385 33
-385 -375
-33 375 385
-386 -33
-386 -384
33 384 386
-387 -385
-387 -386
385 386 387
-388 60
-388 -387
-60 387 388
-389 30
-389 -60
-30 60 389
-390 -388
-390 -389
388 389 390
-391 30
-391 172
-30 -172 391
-392 -31
-392 391
31 -391 392
-393 -117
-393 -392
117 392 393
-394 32
-394 85
-32 -85 394
-395 -32
-395 -393
32 393 395
-396 -394
-396 -395
394 395 396
-397 31
-397 -378
-31 378 397
-398 -30
-398 -173
30 173 398
-399 31
-399 398
-31 -398 399
-400 -85
-400 -399
85 399 400
-401 32
-401 -397
-32 397 401
-402 -32
-402 -400
32 400 402
-403 -401
-403 -402
401 402 403
-404 33
-404 -396
-33 396 404
-405 -33
-405 -403
33 403 405
-406 -404
-406 -405
404 405 406
-407 60
-407 -406
-60 406 407
-408 31
-408 -60
-31 60 408
-409 -407
-409 -408
407 408 409
-410 30
-410 -172
-30 172 410
-411 30
-411 31
-30 -31 411
-412 -31
-412 410
31 -410 412
-413 -411
-413 -412
411 412 413
-414 -31
-414 32
31 -32 414
-415 -32
-415 -413
32 413 415
-416 -414
-416 -415
414 415 416
-417 -30
-417 173
30 -173 417
-418 -30
-418 -417
30 417 418
-419 31
-419 -418
-31 418 419
-420 -32
-420 419
32 -419 420
-421 -401
-421 -420
401 420 421
-422 33
-422 -416
-33 416 422
-423 -33
-423 -421
33 421 423
-424 -422
-424 -423
422 423 424
-425 60
-425 -424
-60 424 425
-426 32
-426 -60
-32 60 426
-427 -425
-427 -426
425 426 427
-428 32
-428 -414
-32 414 428
-429 8
-429 30
-8 -30 429
-430 31
-430 429
-31 -429 430
-431 32
-431 430
-32 -430 431
-432 33
-432 -428
-33 428 432
-433 -33
-433 431
33 -431 433
-434 -432
-434 -433
432 433 434
-435 60
-435 -434
-60 434 435
-436 33
-436 -60
-33 60 436
-437 -435
-437 -436
435 436 437
-438 62
-438 213
-62 -213 438
-439 57
-439 438
-57 -438 439
-440 70
-440 279
-70 -279 440
-441 58
-441 440
-58 -440 441
-442 78
-442 345
-78 -345 442
-443 59
-443 442
-59 -442 443
-444 86
-444 411
-86 -411 444
-445 60
-445 444
-60 -444 445
-446 -439
-446 -441
439 441 446
-447 -443
-447 -445
443 445 447
-448 446
-448 447
-446 -447 448
-449 65
-449 96
-65 -96 449
-450 57
-450 449
-57 -449 450
-451 73
-451 103
-73 -103 451
-452 58
-452 451
-58 -451 452
-453 81
-453 110
-81 -110 453
-454 59
-454 453
-59 -453 454
-455 89
-455 117
-89 -117 455
-456 60
-456 455
-60 -455 456
-457 -450
-457 -452
450 452 457
-458 -454
-458 -456
454 456 458
-459 457
-459 458
-457 -458 459
-460 34
-460 -35
-34 35 460
-461 -173
-461 -460
173 460 461
-462 34
-462 35
-34 -35 462
-463 -34
-463 -35
34 35 463
-464 -462
-464 -463
462 463 464
-465 -34
-465 -459
34 459 465
-466 34
-466 459
-34 -459 466
-467 -465
-467 -466
465 466 467
-468 -34
-468 -448
34 448 468
-469 448
-469 -467
-448 467 469
-470 -468
-470 -469
468 469 470
-471 -459
-471 -464
459 464 471
-472 35
-472 459
-35 -459 472
-473 -471
-473 -472
471 472 473
-474 -448
-474 -461
448 461 474
-475 448
-475 -473
-448 473 475
-476 -474
-476 -475
474 475 476
-477 97
-477 213
-97 -213 477
-478 -14
-478 477
14 -477 478
-479 104
-479 279
-104 -279 479
-480 -15
-480 479
15 -479 480
-481 111
-481 345
-111 -345 481
-482 -16
-482 481
16 -481 482
-483 118
-483 411
-118 -411 483
-484 -17
-484 483
17 -483 484
-485 478
-485 -480
-478 480 485
-486 -478
-486 480
478 -480 486
-487 -485
-487 -486
485 486 487
-488 478
-488 480
-478 -480 488
-489 -482
-489 -487
482 487 489
-490 482
-490 487
-482 -487 490
-491 -489
-491 -490
489 490 491
-492 482
-492 -487
-482 487 492
-493 488
-493 -492
-488 492 493
-494 -488
-494 492
488 -492 494
-495 -493
-495 -494
493 494 495
-496 488
-496 492
-488 -492 496
-497 -484
-497 -491
484 491 497
-498 484
-498 491
-484 -491 498
-499 -497
-499 -498
497 498 499
-500 484
-500 -491
-484 491 500
-501 -496
-501 -499
496 499 501
-502 496
-502 499
-496 -499 502
-503 -501
-503 -502
501 502 503
-504 496
-504 -499
-496 499 504
-505 -500
-505 -504
500 504 505
-506 -495
-506 505
495 -505 506
-507 495
-507 -505
-495 505 507
-508 -506
-508 -507
506 507 508
-509 -495
-509 -505
495 505 509
-510 -503
-510 -508
503 508 510
-511 -509
-511 510
509 -510 511
-512 -509
-512 -511
509 511 512
-513 -172
-513 -173
172 173 513
-514 -448
-514 462
448 -462 514
-515 -459
-515 463
459 -463 515
-516 512
-516 -514
-512 514 516
-517 -513
-517 -515
513 515 517
-518 516
-518 517
-516 -517 518
-518
